g3 1 1 0	# problem unknown
 12 17 1 0 0 	# vars, constraints, objectives, ranges, eqns
 4 1 0 0 0 0	# nonlinear constrs, objs; ccons: lin, nonlin, nd, nzlb
 0 0	# network constraints: nonlinear, linear
 7 8 7 	# nonlinear vars in constraints, objectives, both
 0 0 0 1	# linear network variables; functions; arith, flags
 0 0 0 0 0 	# discrete variables: binary, integer, nonlinear (b,c,o)
 43 8 	# nonzeros in Jacobian, obj. gradient
 0 0	# max name lengths: constraints, variables
 0 0 0 0 0	# common exprs: b,c,o,c1,o1
C0
o2
n-1
o5
o0
n1
o2
n0.2
o0
n3.38704571197895
o2
n3.89091
v3
n5.0
C1
o2
n-1
o5
o0
n1
o2
n0.2
o54
3
o0
n1.9203809434197776
o2
n3.89091
v4
o2
n-3.19977
v3
o2
n2.8233999999999995
o0
n-1
o5
v0
n0.2
n5.0
C2
o2
n-1
o5
o0
n1
o2
n0.2
o54
3
o0
n1.9015419037829964
o2
n3.89091
v5
o2
n-3.19977
v4
o2
n2.8233999999999995
o0
n-1
o5
v1
n0.2
n5.0
C3
o2
n-1
o5
o0
n1
o2
n0.2
o54
3
o0
n1.8827987389885315
o2
n3.89091
v6
o2
n-3.19977
v5
o2
n2.8233999999999995
o0
n-1
o5
v2
n0.2
n5.0
C4
n0
C5
n0
C6
n0
C7
n0
C8
n0
C9
n0
C10
n0
C11
n0
C12
n0
C13
n0
C14
n0
C15
n0
C16
n0
O0 1
o54
4
o2
n606
o2
v0
o0
n1
o2
n-1
v3
o2
n606
o2
v1
o0
n1
o2
n-1
v4
o2
n606
o2
v2
o0
n1
o2
n-1
v5
o2
n606
o2
v7
o0
n1
o2
n-1
v6
x12
0 0
1 0
2 0
3 0.579
4 0.579
5 0.579
6 0.579
7 0
8 0
9 0
10 0
11 0
r
1 0.0
1 0.0
1 0.0
1 0.0
1 2476.0
1 0.0
1 0.0
1 0.0
2 0.579
1 0.0
1 0.0
1 0.0
1 2476.0
1 0.0
1 0.0
1 0.0
1 2476.0
b
0 1e-20 2500
0 1e-20 2500
0 1e-20 2500
0 0.579 0.6
0 0.579 0.6
0 0.579 0.6
0 0.579 0.6
0 1e-20 2500
0 1e-20 2500
0 1e-20 2500
0 1e-20 2500
0 1e-20 2500
k11
5
10
15
19
23
27
29
33
36
39
42
J0 2
0 1.0
3 0
J1 4
1 1.0
0 0
3 0
4 0
J2 4
2 1.0
1 0
4 0
5 0
J3 4
7 1.0
2 0
5 0
6 0
J4 2
0 -1
8 1
J5 3
1 -1
8 -1
9 1
J6 3
2 -1
9 -1
10 1
J7 3
7 -1
10 -1
11 1
J8 1
3 1
J9 2
3 1
4 -1
J10 2
4 1
5 -1
J11 2
5 1
6 -1
J12 1
0 1
J13 2
1 1
8 -1
J14 2
2 1
9 -1
J15 2
7 1
10 -1
J16 4
0 1
1 1
2 1
7 1
G0 8
0 0
1 0
2 0
3 0
4 0
5 0
6 0
7 0
